c ---- [ banner ] ------------------------------------------------------------
c
c Kissat SAT Solver
c 
c Copyright (c) 2021-2024 Armin Biere University of Freiburg
c Copyright (c) 2019-2021 Armin Biere Johannes Kepler University Linz
c 
c Version 4.0.1 43f02cf3e992cb44653b35e5cb26f93281552ae0
c gcc (Ubuntu 13.2.0-23ubuntu4) 13.2.0 -W -Wall -O3 -DNDEBUG
c Thu Sep 12 12:27:46 CEST 2024 Linux abryzen9 6.8.0-41-generic x86_64
c
c ---- [ parsing ] -----------------------------------------------------------
c
c opened and reading DIMACS file:
c
c   /data/artifact/AMulet2.0_artifact/exp4/cnf_dc2_64/64_64_U_SP_CWT_BK_GenMul_dc2.cnf
c
c parsed 'p cnf 37530 150032' header
c closing input after reading 2943403 bytes (3 MB)
c finished parsing after 0.03 seconds
c
c ---- [ options ] -----------------------------------------------------------
c
c --stable=0                       (different from default '1')
c
c ---- [ solving ] -----------------------------------------------------------
c
c  seconds switched rate     size/glue tier1  binary           remaining
c         MB reductions conflicts size  tier2     irredundant
c          level restarts redundant glue  trail           variables
c
c *  0.03 12 0 0 0  0 0   0   0 0.0 0 0 0 0 0% 35215 114815 37527 100%
c (  0.06 13 0 0 0  0 0   0   0 0.0 0 0 0 0 0% 35215 114815 37527 100%
c .  0.07 13 0 0 0  0 0   0   0 0.0 0 0 0 0 0% 35211 114815 37527 100%
c c  0.17 21 0 0 0  0 0   0   0 0.0 0 0 0 0 0% 43587 99890 33337 89%
c d  0.18 21 0 0 0  0 0   0   0 0.0 0 0 0 0 0% 35207 99890 33337 89%
c =  0.25 21 0 0 0  0 0   0   0 0.0 0 0 0 0 0% 35197 99890 32733 87%
c d  0.26 21 0 0 0  0 0   0   0 0.0 0 0 0 0 0% 33989 99890 32733 87%
c f  0.39 20 0 0 0  0 0   0   0 0.0 0 0 0 0 0% 35197 95706 34705 92%
c e  0.59 27 0 0 0  0 0   0   0 0.0 0 0 0 0 0% 24265 104058 25407 68%
c )  0.59 27 0 0 0  0 0   0   0 0.0 0 0 0 0 0% 24265 104058 25407 68%
c {  0.62 27 0 0 0  0 0   0   0 0.0 0 0 2 6 0% 24265 104058 25407 68%
c -  0.89 28 173 0 1 199 34 1000 721 4.0 24 6 4 9 29% 24328 104050 25407 68%
c -  1.15 28 209 0 2 293 32 2002 1414 4.3 26 6 3 10 31% 24392 104036 25407 68%
c c  1.32 24 231 0 2 322 31 2506 1869 3.9 23 6 3 10 31% 25077 103605 24980 67%
c d  1.33 24 231 0 2 322 31 2506 1866 3.9 23 6 3 10 31% 24223 103605 24980 67%
c u  1.35 24 231 0 2 322 31 2506 1421 3.9 23 6 3 10 31% 22952 103605 24980 67%
c v  1.38 24 231 0 2 322 31 2506 1279 3.9 23 6 3 10 31% 22952 103605 24980 67%
c w  1.39 24 231 0 2 322 31 2506 1279 3.9 23 6 3 10 31% 22952 103605 24980 67%
c x  1.41 24 231 0 2 322 31 2506 1279 3.9 23 6 3 10 31% 23074 103238 24980 67%
c =  1.49 24 231 0 2 322 31 2506 1279 3.9 23 6 3 10 31% 23638 103238 24698 66%
c
c  seconds   switched   rate       size/glue tier1     binary           remaining
c         MB  reductions conflicts       size  tier2       irredundant
c           level restarts    redundant    glue    trail           variables
c
c d  1.50 24 231 0 2 322 31 2506 1270 3.9 23 6 3 10 31% 23073 103238 24698 66%
c t  1.51 24 231 0 2 322 31 2506 1270 3.9 23 6 3 10 31% 23069 103238 24698 66%
c f  1.54 24 231 0 2 322 31 2506 1270 3.9 23 6 3 10 31% 23439 102262 25143 67%
c u  1.64 24 231 0 2 322 31 2506 1209 3.9 23 6 3 10 31% 23446 102262 25143 67%
c v  1.66 24 231 0 2 322 31 2506 1115 3.9 23 6 3 10 31% 23446 102262 25143 67%
c w  1.68 24 231 0 2 322 31 2506 1111 3.9 23 6 3 10 31% 23446 102262 25143 67%
c x  1.71 24 231 0 2 322 31 2506 1111 3.9 23 6 3 10 31% 23451 101886 25143 67%
c =  1.80 24 231 0 2 322 31 2506 1111 3.9 23 6 3 10 31% 24055 101886 24841 66%
c d  1.81 24 231 0 2 322 31 2506 1103 3.9 23 6 3 10 31% 23425 101886 24841 66%
c f  1.86 24 231 0 2 322 31 2506 1103 3.9 23 6 3 10 31% 23410 101525 24949 66%
c -  2.03 24 222 0 3 385 28 3417 1652 3.3 19 6 4 10 30% 23455 101522 24949 66%
c -  2.33 24 256 0 4 522 27 5150 2712 3.2 18 6 3 10 29% 23559 101511 24949 66%
c -  3.00 24 237 0 5 785 28 7150 3923 3.1 19 6 3 9 30% 23633 101507 24949 66%
c d  3.14 24 236 0 5 828 28 7717 4436 3.1 19 6 3 9 31% 23622 101507 24937 66%
c u  3.19 24 236 0 5 828 28 7717 3441 3.1 19 6 3 9 31% 23630 101507 24937 66%
c v  3.23 24 236 0 5 828 28 7717 3162 3.1 19 6 3 9 31% 23630 101507 24937 66%
c w  3.26 24 236 0 5 828 28 7717 3161 3.1 19 6 3 9 31% 23630 101507 24937 66%
c x  3.29 24 236 0 5 828 28 7717 3161 3.1 19 6 3 9 31% 23630 101061 24937 66%
c =  3.45 25 236 0 5 828 28 7717 3161 3.1 19 6 3 9 31% 24902 101061 24301 65%
c d  3.47 25 236 0 5 828 28 7717 3106 3.1 19 6 3 9 31% 23582 101061 24301 65%
c
c  seconds   switched   rate       size/glue tier1    binary           remaining
c         MB  reductions conflicts       size  tier2      irredundant
c           level restarts    redundant    glue   trail           variables
c
c t  3.49 25 236 0 5 828 28 7717 3106 3.1 19 6 3 9 31% 23493 101061 24301 65%
c f  3.54 25 236 0 5 828 28 7717 3106 3.1 19 6 3 9 31% 23879 99777 24700 66%
c u  3.66 25 236 0 5 828 28 7717 2920 3.1 19 6 3 9 31% 23882 99777 24700 66%
c v  3.69 25 236 0 5 828 28 7717 2794 3.1 19 6 3 9 31% 23883 99777 24700 66%
c w  3.74 25 236 0 5 828 28 7717 2783 3.1 19 6 3 9 31% 23883 99777 24700 66%
c x  3.77 25 236 0 5 828 28 7717 2783 3.1 19 6 3 9 31% 23889 99364 24700 66%
c =  3.92 25 236 0 5 828 28 7717 2783 3.1 19 6 3 9 31% 25309 99364 23990 64%
c d  3.93 25 236 0 5 828 28 7717 2764 3.1 19 6 3 9 31% 23772 99364 23990 64%
c t  3.95 25 236 0 5 828 28 7717 2764 3.1 19 6 3 9 31% 23703 99364 23990 64%
c f  4.01 25 236 0 5 828 28 7717 2764 3.1 19 6 3 9 31% 24048 97811 24589 66%
c -  4.44 25 234 0 6 997 28 9386 3652 3.1 19 6 3 10 30% 24109 97810 24589 66%
c o  4.60 25 254 0 6 1046 27 10431 4527 3.2 19 6 3 10 30% 24176 97802 24589 66%
c -  4.93 25 254 0 7 1147 28 11835 5079 3.2 19 6 3 9 30% 24254 97800 24589 66%
c s  5.21 25 255 0 7 1230 28 12526 5703 3.2 19 6 3 9 31% 24283 89492 24589 66%
c e  5.33 25 255 0 7 1230 28 12526 5703 3.2 19 6 3 9 31% 21226 91906 22288 59%
c 2  5.34 25 255 0 7 1230 28 12526 5703 3.2 19 6 3 9 31% 21223 91906 22288 59%
c s  5.35 25 255 0 7 1230 28 12526 5703 3.2 19 6 3 9 31% 21254 91100 22288 59%
c e  5.37 25 255 0 7 1230 28 12526 5703 3.2 19 6 3 9 31% 20518 91486 21916 58%
c ^  5.37 25 255 0 7 1230 28 12526 5703 3.2 19 6 3 9 31% 20518 91486 21916 58%
c -  5.68 25 253 0 8 1299 26 14481 5806 3.1 18 6 3 9 30% 20611 91478 21916 58%
c
c  seconds   switched    rate        size/glue tier1    binary          remaining
c         MB  reductions   conflicts       size  tier2      irredundant
c           level  restarts     redundant    glue   trail          variables
c
c d  6.00 25 248 0 8 1405 27 15803 6984 3.1 19 6 3 9 30% 20594 91473 21884 58%
c u  6.07 25 248 0 8 1405 27 15803 5516 3.1 19 6 3 9 30% 20613 91473 21884 58%
c v  6.11 25 248 0 8 1405 27 15803 5178 3.1 19 6 3 9 30% 20613 91473 21884 58%
c w  6.15 25 248 0 8 1405 27 15803 5178 3.1 19 6 3 9 30% 20613 91473 21884 58%
c x  6.20 25 248 0 8 1405 27 15803 5177 3.1 19 6 3 9 30% 20643 90979 21884 58%
c =  6.39 25 248 0 8 1405 27 15803 5177 3.1 19 6 3 9 30% 21159 90979 21626 58%
c d  6.41 25 248 0 8 1405 27 15803 5100 3.1 19 6 3 9 30% 20497 90979 21625 58%
c t  6.44 25 248 0 8 1405 27 15803 5100 3.1 19 6 3 9 30% 20478 90979 21625 58%
c f  6.52 25 248 0 8 1405 27 15803 5100 3.1 19 6 3 9 30% 20496 90816 21668 58%
c u  6.61 25 248 0 8 1405 27 15803 4790 3.1 19 6 3 9 30% 20500 90816 21668 58%
c v  6.66 25 248 0 8 1405 27 15803 4592 3.1 19 6 3 9 30% 20501 90816 21668 58%
c w  6.71 25 248 0 8 1405 27 15803 4590 3.1 19 6 3 9 30% 20501 90816 21668 58%
c x  6.75 25 248 0 8 1405 27 15803 4581 3.1 19 6 3 9 30% 20552 89777 21668 58%
c =  6.91 25 248 0 8 1405 27 15803 4581 3.1 19 6 3 9 30% 20826 89777 21531 57%
c d  6.92 25 248 0 8 1405 27 15803 4576 3.1 19 6 3 9 30% 20464 89777 21531 57%
c t  6.94 25 248 0 8 1405 27 15803 4576 3.1 19 6 3 9 30% 20450 89777 21531 57%
c f  6.98 25 248 0 8 1405 27 15803 4576 3.1 19 6 3 9 30% 20442 89766 21534 57%
c -  7.22 25 257 0 9 1481 26 17311 4868 3.1 18 6 2 8 30% 20527 89765 21534 57%
c -  7.73 25 260 0 10 1650 25 20314 6468 3.1 18 6 2 8 29% 20636 89761 21534 57%
c o  7.79 25 264 0 10 1669 25 20618 6742 3.1 18 6 2 8 29% 20642 89761 21534 57%
c
c  seconds   switched     rate        size/glue tier1    binary          remaining
c         MB   reductions   conflicts       size  tier2      irredundant
c           level   restarts     redundant    glue   trail          variables
c
c -  8.38 25 265 0 11 1885 26 23476 8069 3.2 19 6 2 7 29% 20747 89759 21534 57%
c s  8.64 25 258 0 11 2006 26 25031 9399 3.2 19 6 2 7 28% 20801 89348 21534 57%
c e  8.78 25 258 0 11 2006 26 25031 9399 3.2 19 6 2 7 28% 17175 94493 19539 52%
c 2  8.78 25 258 0 11 2006 26 25031 9399 3.2 19 6 2 7 28% 17164 94493 19539 52%
c s  8.80 25 258 0 11 2006 26 25031 9399 3.2 19 6 2 7 28% 17268 92956 19539 52%
c e  8.83 25 258 0 11 2006 26 25031 9399 3.2 19 6 2 7 28% 17190 93066 19502 52%
c ^  8.83 25 258 0 11 2006 26 25031 9399 3.2 19 6 2 7 28% 17190 93066 19502 52%
c -  9.25 25 257 0 12 2179 26 26792 8102 3.2 19 6 2 7 28% 17240 93065 19502 52%
c c  9.33 25 256 0 12 2185 26 26933 8225 3.2 19 6 2 7 28% 17259 93004 19489 52%
c d  9.33 25 256 0 12 2185 26 26933 8215 3.2 19 6 2 7 28% 17179 93004 19457 52%
c u  9.39 25 256 0 12 2185 26 26933 7088 3.2 19 6 2 7 28% 17210 93004 19457 52%
c v  9.44 25 256 0 12 2185 26 26933 6194 3.2 19 6 2 7 28% 17213 93004 19457 52%
c w  9.45 25 256 0 12 2185 26 26933 6191 3.2 19 6 2 7 28% 17213 93004 19457 52%
c x  9.48 25 256 0 12 2185 26 26933 6183 3.2 19 6 2 7 28% 17247 92343 19457 52%
c =  9.64 25 256 0 12 2185 26 26933 6183 3.2 19 6 2 7 28% 17871 92343 19145 51%
c d  9.65 25 256 0 12 2185 26 26933 6087 3.2 19 6 2 7 28% 17212 92343 19139 51%
c t  9.68 25 256 0 12 2185 26 26933 6087 3.2 19 6 2 7 28% 17164 92343 19139 51%
c f  9.77 25 256 0 12 2185 26 26933 6087 3.2 19 6 2 7 28% 17393 91453 19300 51%
c u  9.83 25 256 0 12 2185 26 26933 5773 3.2 19 6 2 7 28% 17403 91453 19300 51%
c v  9.87 25 256 0 12 2185 26 26933 5586 3.2 19 6 2 7 28% 17404 91453 19300 51%
c
c  seconds   switched     rate        size/glue tier1    binary          remaining
c         MB   reductions   conflicts       size  tier2      irredundant
c           level   restarts     redundant    glue   trail          variables
c
c w  9.89 25 256 0 12 2185 26 26933 5583 3.2 19 6 2 7 28% 17404 91453 19300 51%
c x  9.98 25 256 0 12 2185 26 26933 5580 3.2 19 6 2 7 28% 17435 90240 19300 51%
c = 10.14 25 256 0 12 2185 26 26933 5580 3.2 19 6 2 7 28% 17833 90239 19101 51%
c d 10.15 25 256 0 12 2185 26 26933 5555 3.2 19 6 2 7 28% 17420 90239 19100 51%
c t 10.16 25 256 0 12 2185 26 26933 5555 3.2 19 6 2 7 28% 17405 90239 19100 51%
c f 10.19 25 256 0 12 2185 26 26933 5555 3.2 19 6 2 7 28% 17389 90167 19115 51%
c - 10.59 25 245 0 13 2375 25 30256 7469 3.1 19 6 2 7 28% 17463 90167 19115 51%
c - 11.14 25 240 0 14 2701 25 33861 9506 3.1 19 6 2 7 29% 17524 90167 19115 51%
c - 11.66 25 235 0 15 2957 25 37602 11073 3.1 19 6 2 7 29% 17620 90167 19115 51%
c o 12.06 25 234 0 15 3176 25 40623 13739 3.1 19 6 2 7 28% 17677 90167 19115 51%
c d 12.24 25 233 0 15 3259 25 41261 14264 3.1 19 6 2 7 28% 17609 90167 19073 51%
c u 12.29 25 233 0 15 3259 25 41261 12383 3.1 19 6 2 7 28% 17623 90167 19073 51%
c v 12.34 25 233 0 15 3259 25 41261 11498 3.1 19 6 2 7 28% 17623 90167 19073 51%
c w 12.38 25 233 0 15 3259 25 41261 11498 3.1 19 6 2 7 28% 17623 90167 19073 51%
c x 12.44 25 233 0 15 3259 25 41261 11493 3.1 19 6 2 7 28% 17623 87618 19073 51%
c = 12.75 25 233 0 15 3259 25 41261 11493 3.1 19 6 2 7 28% 20913 87618 17428 46%
c d 12.77 25 233 0 15 3259 25 41261 10954 3.1 19 6 2 7 28% 17484 87618 17427 46%
c t 12.80 25 233 0 15 3259 25 41261 10954 3.1 19 6 2 7 28% 17065 87618 17427 46%
c f 12.89 25 233 0 15 3259 25 41261 10954 3.1 19 6 2 7 28% 17157 86910 17560 47%
c u 12.98 25 233 0 15 3259 25 41261 10337 3.1 19 6 2 7 28% 17161 86910 17560 47%
c
c  seconds   switched     rate        size/glue tier1    binary          remaining
c         MB   reductions   conflicts       size  tier2      irredundant
c           level   restarts     redundant    glue   trail          variables
c
c v 13.05 25 233 0 15 3259 25 41261 9457 3.1 19 6 2 7 28% 17163 86910 17560 47%
c w 13.11 25 233 0 15 3259 25 41261 9451 3.1 19 6 2 7 28% 17163 86910 17560 47%
c x 13.18 25 233 0 15 3259 25 41261 9451 3.1 19 6 2 7 28% 17164 81839 17560 47%
c = 13.42 25 233 0 15 3259 25 41261 9451 3.1 19 6 2 7 28% 17228 81839 17528 47%
c d 13.43 25 233 0 15 3259 25 41261 9445 3.1 19 6 2 7 28% 17162 81839 17528 47%
c t 13.46 25 233 0 15 3259 25 41261 9445 3.1 19 6 2 7 28% 17136 81839 17528 47%
c f 13.48 25 233 0 15 3259 25 41261 9445 3.1 19 6 2 7 28% 17141 81817 17533 47%
c - 13.51 25 232 0 16 3259 25 41474 8337 3.1 19 6 2 7 28% 17149 81817 17533 47%
c - 13.83 25 230 0 17 3391 24 45474 10308 3.1 18 6 2 7 27% 17266 81814 17533 47%
c - 14.43 25 227 0 18 3625 24 49597 12457 3.0 18 6 2 7 27% 17353 81814 17533 47%
c s 14.93 25 222 0 18 3860 24 52139 14630 3.0 18 6 2 7 27% 17405 77354 17533 47%
c e 15.04 25 222 0 18 3860 24 52139 14630 3.0 18 6 2 7 27% 15597 80537 16501 44%
c 2 15.04 25 222 0 18 3860 24 52139 14630 3.0 18 6 2 7 27% 15582 80537 16501 44%
c s 15.06 25 222 0 18 3860 24 52139 14630 3.0 18 6 2 7 27% 15632 80018 16501 44%
c e 15.07 25 222 0 18 3860 24 52139 14630 3.0 18 6 2 7 27% 15605 80062 16486 44%
c ^ 15.07 25 222 0 18 3860 24 52139 14630 3.0 18 6 2 7 27% 15605 80062 16486 44%
c - 15.39 25 219 0 19 4013 23 53839 13169 3.0 18 6 2 6 27% 15638 80060 16486 44%
c - 16.35 25 214 0 20 4435 23 58197 15118 3.0 18 6 2 6 27% 15718 80058 16486 44%
c c 16.50 25 213 0 20 4470 23 58887 15742 3.0 18 6 2 6 27% 15761 79917 16456 44%
c d 16.51 25 213 0 20 4470 23 58887 15679 3.0 18 6 2 6 27% 15701 79917 16456 44%
c
c  seconds   switched     rate         size/glue tier1    binary          remaining
c         MB   reductions   conflicts        size  tier2      irredundant
c           level   restarts      redundant    glue   trail          variables
c
c u 16.60 25 213 0 20 4470 23 58887 13256 3.0 18 6 2 6 27% 15705 79917 16456 44%
c v 16.67 25 213 0 20 4470 23 58887 12302 3.0 18 6 2 6 27% 15708 79917 16456 44%
c w 16.70 25 213 0 20 4470 23 58887 12285 3.0 18 6 2 6 27% 15708 79917 16456 44%
c x 16.77 25 213 0 20 4470 23 58887 12281 3.0 18 6 2 6 27% 15712 79695 16456 44%
c = 17.04 25 213 0 20 4470 23 58887 12281 3.0 18 6 2 6 27% 16466 79695 16079 43%
c d 17.05 25 213 0 20 4470 23 58887 11887 3.0 18 6 2 6 27% 15646 79695 16079 43%
c t 17.08 25 213 0 20 4470 23 58887 11887 3.0 18 6 2 6 27% 15475 79695 16079 43%
c f 17.15 25 213 0 20 4470 23 58887 11887 3.0 18 6 2 6 27% 15572 79242 16138 43%
c u 17.24 25 213 0 20 4470 23 58887 10932 3.0 18 6 2 6 27% 15588 79242 16138 43%
c v 17.31 25 213 0 20 4470 23 58887 10148 3.0 18 6 2 6 27% 15588 79242 16138 43%
c w 17.34 25 213 0 20 4470 23 58887 10125 3.0 18 6 2 6 27% 15588 79242 16138 43%
c x 17.43 26 213 0 20 4470 23 58887 10119 3.0 18 6 2 6 27% 15666 76816 16138 43%
c = 17.69 26 213 0 20 4470 23 58887 10119 3.0 18 6 2 6 27% 16252 76816 15845 42%
c d 17.70 26 213 0 20 4470 23 58887 10037 3.0 18 6 2 6 27% 15635 76816 15845 42%
c t 17.73 26 213 0 20 4470 23 58887 10037 3.0 18 6 2 6 27% 15530 76816 15845 42%
c f 17.76 26 213 0 20 4470 23 58887 10037 3.0 18 6 2 6 27% 15563 76654 15866 42%
c - 18.55 26 211 0 21 4823 24 62671 12016 3.0 19 6 2 6 27% 15612 76654 15866 42%
c - 19.31 26 210 0 22 5166 23 67253 14427 2.9 18 6 2 6 27% 15665 76654 15866 42%
c o 19.80 26 208 0 22 5362 23 70626 17392 2.9 18 6 2 6 27% 15717 76652 15866 42%
c - 20.09 26 207 0 23 5479 23 71943 16446 2.9 18 6 2 6 27% 15743 76652 15866 42%
c
c  seconds   switched     rate         size/glue tier1    binary          remaining
c         MB   reductions   conflicts        size  tier2      irredundant
c           level   restarts      redundant    glue   trail          variables
c
c - 21.03 26 203 0 24 5840 22 76739 18146 2.9 18 6 2 6 27% 15816 76650 15866 42%
c c 21.65 26 200 0 24 6283 23 79942 21134 2.9 18 6 2 6 27% 15871 76513 15832 42%
c d 21.66 26 200 0 24 6283 23 79942 21020 2.9 18 6 2 6 27% 15800 76513 15830 42%
c u 21.73 26 200 0 24 6283 23 79942 17772 2.9 18 6 2 6 27% 15827 76513 15830 42%
c v 21.78 26 200 0 24 6283 23 79942 16760 2.9 18 6 2 6 27% 15831 76513 15830 42%
c w 21.84 26 200 0 24 6283 23 79942 16760 2.9 18 6 2 6 27% 15831 76513 15830 42%
c x 21.94 26 200 0 24 6283 23 79942 16749 2.9 18 6 2 6 27% 15909 74400 15830 42%
c = 22.10 26 200 0 24 6283 23 79942 16749 2.9 18 6 2 6 27% 16311 74400 15629 42%
c d 22.11 26 200 0 24 6283 23 79942 16480 2.9 18 6 2 6 27% 15884 74400 15628 42%
c t 22.14 26 200 0 24 6283 23 79942 16480 2.9 18 6 2 6 27% 15801 74400 15628 42%
c f 22.16 26 200 0 24 6283 23 79942 16480 2.9 18 6 2 6 27% 15820 74305 15641 42%
c c 22.22 26 200 0 24 6283 23 79942 16474 2.9 18 6 2 6 27% 15823 74297 15640 42%
c d 22.23 26 200 0 24 6283 23 79942 16474 2.9 18 6 2 6 27% 15821 74297 15640 42%
c u 22.32 26 200 0 24 6283 23 79942 15490 2.9 18 6 2 6 27% 15832 74297 15640 42%
c v 22.38 26 200 0 24 6283 23 79942 14367 2.9 18 6 2 6 27% 15834 74297 15640 42%
c w 22.43 26 200 0 24 6283 23 79942 14364 2.9 18 6 2 6 27% 15834 74297 15640 42%
c x 22.51 26 200 0 24 6283 23 79942 14354 2.9 18 6 2 6 27% 15924 72985 15640 42%
c = 22.83 26 200 0 24 6283 23 79942 14354 2.9 18 6 2 6 27% 16974 72877 15106 40%
c d 22.83 26 200 0 24 6283 23 79942 13906 2.9 18 6 2 6 27% 15868 72877 15106 40%
c t 22.85 26 200 0 24 6283 23 79942 13906 2.9 18 6 2 6 27% 15688 72877 15106 40%
c
c  seconds   switched     rate         size/glue tier1    binary          remaining
c         MB   reductions   conflicts        size  tier2      irredundant
c           level   restarts      redundant    glue   trail          variables
c
c f 22.87 26 200 0 24 6283 23 79942 13906 2.9 18 6 2 6 27% 15729 72666 15135 40%
c - 23.14 26 198 0 25 6468 23 81639 13579 2.9 18 6 2 6 28% 15742 72663 15135 40%
c - 23.86 26 194 0 26 6885 23 86639 16202 2.9 18 6 2 6 27% 15804 72658 15135 40%
c i 24.11 26 192 0 26 7096 22 89321 18545 2.9 18 6 2 6 27% 15843 72656 15134 40%
c - 24.38 26 191 0 27 7335 22 91738 18425 2.9 18 6 2 6 27% 15870 72652 15134 40%
c s 24.75 26 187 0 27 7622 22 95791 21875 2.9 18 6 2 6 27% 15928 69724 15134 40%
c e 24.85 26 187 0 27 7622 22 95791 21875 2.9 18 6 2 6 27% 12076 80287 12982 35%
c 2 24.85 26 187 0 27 7622 22 95791 21875 2.9 18 6 2 6 27% 12065 80287 12982 35%
c s 24.87 26 187 0 27 7622 22 95791 21875 2.9 18 6 2 6 27% 12116 78786 12982 35%
c e 24.89 26 187 0 27 7622 22 95791 21875 2.9 18 6 2 6 27% 11982 79039 12936 34%
c ^ 24.89 26 187 0 27 7622 22 95791 21875 2.9 18 6 2 6 27% 11982 79039 12936 34%
c - 25.04 26 186 0 28 7738 22 96936 14572 2.9 18 6 2 6 27% 11986 79039 12936 34%
c i 25.48 26 184 0 28 8120 22 100726 17874 2.8 18 6 2 6 27% 12030 79039 12935 34%
c i 25.52 26 181 0 28 8130 22 102226 19066 2.8 18 6 2 6 27% 12070 79039 12934 34%
c - 25.52 26 181 0 29 8130 22 102227 17063 2.8 18 6 2 5 27% 12056 79039 12934 34%
c d 25.89 26 180 0 29 8428 22 104556 19054 2.8 18 6 2 5 27% 12030 79026 12914 34%
c d 25.90 26 180 0 29 8428 22 104556 19048 2.8 18 6 2 5 27% 12028 79026 12913 34%
c u 26.00 26 180 0 29 8428 22 104556 15964 2.8 18 6 2 5 27% 12063 79026 12913 34%
c v 26.07 26 180 0 29 8428 22 104556 14343 2.8 18 6 2 5 27% 12065 79026 12913 34%
c w 26.13 26 180 0 29 8428 22 104556 14334 2.8 18 6 2 5 27% 12065 79026 12913 34%
c
c  seconds   switched     rate          size/glue tier1    binary          remaining
c         MB   reductions   conflicts         size  tier2      irredundant
c           level   restarts       redundant    glue   trail          variables
c
c x 26.19 26 180 0 29 8428 22 104556 14330 2.8 18 6 2 5 27% 12111 78567 12913 34%
c = 26.52 26 180 0 29 8428 22 104556 14330 2.8 18 6 2 5 27% 12340 78361 12775 34%
c d 26.52 26 180 0 29 8428 22 104556 13891 2.8 18 6 2 5 27% 12068 78361 12775 34%
c t 26.53 26 180 0 29 8428 22 104556 13891 2.8 18 6 2 5 27% 11957 78361 12775 34%
c f 26.62 26 180 0 29 8428 22 104556 13891 2.8 18 6 2 5 27% 11986 78166 12792 34%
c u 26.70 26 180 0 29 8428 22 104556 13013 2.8 18 6 2 5 27% 11992 78166 12792 34%
c v 26.73 26 180 0 29 8428 22 104556 12581 2.8 18 6 2 5 27% 11992 78166 12792 34%
c w 26.81 26 180 0 29 8428 22 104556 12273 2.8 18 6 2 5 27% 11992 78166 12792 34%
c x 26.86 26 180 0 29 8428 22 104556 12265 2.8 18 6 2 5 27% 11998 77201 12792 34%
c = 27.22 26 180 0 29 8428 22 104556 12265 2.8 18 6 2 5 27% 12030 77121 12767 34%
c d 27.23 26 180 0 29 8428 22 104556 12202 2.8 18 6 2 5 27% 11999 77120 12767 34%
c t 27.24 26 180 0 29 8428 22 104556 12202 2.8 18 6 2 5 27% 11979 77120 12767 34%
c i 27.28 26 178 0 29 8448 22 105334 12891 2.8 18 6 2 5 27% 11996 77119 12766 34%
c i 27.30 26 178 0 29 8476 22 105547 13052 2.8 18 6 2 5 27% 12006 77119 12765 34%
c i 27.31 26 177 0 29 8491 22 105948 13403 2.8 18 6 2 5 27% 12011 77119 12764 34%
c i 27.31 26 177 0 29 8506 21 106089 13522 2.8 18 6 2 5 27% 12016 77119 12763 34%
c i 27.32 26 176 0 29 8531 21 106360 13756 2.8 18 6 2 5 27% 12025 77118 12762 34%
c i 27.33 26 175 0 29 8553 21 106909 14239 2.8 18 6 2 5 26% 12031 77118 12761 34%
c i 27.34 26 174 0 29 8574 21 107293 14538 2.8 18 6 2 5 26% 12042 77118 12759 34%
c i 27.34 26 174 0 29 8598 21 107420 14645 2.8 18 6 2 5 26% 12046 77118 12758 34%
c
c  seconds   switched     rate          size/glue tier1    binary          remaining
c         MB   reductions   conflicts         size  tier2      irredundant
c           level   restarts       redundant    glue   trail          variables
c
c i 27.34 26 174 0 29 8599 21 107550 14737 2.8 17 6 2 5 26% 12052 77117 12757 34%
c - 27.35 26 174 0 30 8604 21 107613 12970 2.8 17 6 2 5 26% 12023 77116 12757 34%
c i 27.36 26 173 0 30 8604 21 107841 13127 2.8 17 6 2 5 26% 12028 77116 12756 34%
c i 27.36 26 173 0 30 8604 21 107915 13174 2.8 17 6 2 5 26% 12031 77116 12755 34%
c i 27.36 26 173 0 30 8604 21 107986 13221 2.8 17 6 2 5 26% 12036 77116 12754 34%
c i 27.36 26 173 0 30 8604 21 107988 13220 2.8 17 6 2 5 26% 12037 77116 12753 34%
c i 27.36 26 173 0 30 8604 21 107993 13220 2.8 17 6 2 5 26% 12038 77116 12752 34%
c i 27.36 26 173 0 30 8604 21 108002 13223 2.8 17 6 2 5 26% 12040 77116 12729 34%
c } 27.36 26 173 0 30 8604 21 108007 13223 2.8 17 6 2 5 26% 12041 77116 12723 34%
c 0 27.36 26 173 0 30 8604 21 108007 13223 2.8 17 6 2 5 26% 12041 77116 12723 34%
c
c ---- [ result ] ------------------------------------------------------------
c
s UNSATISFIABLE
c
c ---- [ profiling ] ---------------------------------------------------------
c
c          17.31   63.28 %  search
c          17.31   63.28 %  focused
c           9.43   34.46 %  simplify
c           8.99   32.87 %  probe
c           3.46   12.64 %  sweep
c           3.13   11.43 %  vivify
c           0.94    3.42 %  factor
c           0.77    2.80 %  eliminate
c           0.64    2.32 %  substitute
c           0.56    2.06 %  congruence
c           0.54    1.96 %  preprocess
c           0.20    0.73 %  reduce
c           0.19    0.71 %  fastel
c           0.17    0.61 %  transitive
c           0.16    0.60 %  subsume
c           0.10    0.38 %  backbone
c           0.05    0.19 %  lucky
c           0.03    0.11 %  parse
c =============================================
c          27.36  100.00 %  total
c
c ---- [ statistics ] --------------------------------------------------------
c
c chronological:                         4558                4 %  conflicts
c conflicts:                           108007             3948.10 per second
c congruent:                             4695               13 %  variables
c decisions:                          2252921               20.86 per conflict
c eliminated:                           17248               46 %  variables
c factored:                              4022               11 %  variables
c fast_eliminated:                       9298               54 %  eliminated
c fast_strengthened:                      328                9 %  per strengthened
c fast_subsumed:                          226                1 %  per subsumed
c iterations:                              19                0 %  variables
c propagations:                     104530122          3821008    per second
c reductions:                              30             3600    interval
c reordered:                                4            27002    interval
c restarts:                              8604               13    interval
c strengthened:                          3491                0 %  checks
c substituted:                          11488               31 %  variables
c subsumed:                             20439                1 %  checks
c switched:                                 0                0    interval
c vivified:                             66127               16 %  checks
c
c ---- [ glue usage ] --------------------------------------------------------
c
c focused glue 2 used 53902 clauses 24.75% accumulated 70.09% tier1
c focused glue 3 used 24538 clauses 11.27% accumulated 81.36%
c focused glue 4 used 11929 clauses  5.48% accumulated 86.83%
c focused glue 5 used  7475 clauses  3.43% accumulated 90.26% tier2
c
c ---- [ resources ] ---------------------------------------------------------
c
c maximum-resident-set-size:         29147136 bytes         28 MB
c process-time:                            27s              27.36 seconds
c
c ---- [ shutting down ] -----------------------------------------------------
c
c exit 20
